Cost: 647
0-58-31-55-50-44-3-17-0
0-15-20-60-36-69-21-47-48-0
0-46-8-35-19-54-13-27-0
0-40-32-9-39-12-0
0-4-45-29-52-34-67-0
0-6-1-22-28-62-2-0
0-51-16-49-23-56-41-43-63-0
0-7-53-59-66-65-38-26-0
Cost: 647
0-27-13-54-19-35-8-46-0
0-15-20-60-36-69-21-47-48-0
0-26-38-65-66-59-53-7-0
0-6-1-22-28-62-2-0
0-63-43-41-56-23-49-16-51-0
0-12-39-9-32-40-0
0-58-31-55-50-44-3-17-0
0-4-45-29-52-34-67-0
Cost: 647
0-58-31-55-50-44-3-17-0
0-15-20-60-36-69-21-47-48-0
0-46-8-35-19-54-13-27-0
0-40-32-9-39-12-0
0-4-45-29-52-34-67-0
0-6-1-22-28-62-2-0
0-51-16-49-23-56-41-43-63-0
0-7-53-59-66-65-38-26-0
Cost: 647
0-58-31-55-50-44-3-17-0
0-15-20-60-36-69-21-47-48-0
0-46-8-35-19-54-13-27-0
0-40-32-9-39-12-0
0-4-45-29-52-34-67-0
0-6-1-22-28-62-2-0
0-51-16-49-23-56-41-43-63-0
0-7-53-59-66-65-38-26-0
Cost: 647
0-58-31-55-50-44-3-17-0
0-15-20-60-36-69-21-47-48-0
0-46-8-35-19-54-13-27-0
0-40-32-9-39-12-0
0-4-45-29-52-34-67-0
0-6-1-22-28-62-2-0
0-51-16-49-23-56-41-43-63-0
0-7-53-59-66-65-38-26-0
Cost: 647
0-58-31-55-50-44-3-17-0
0-15-20-60-36-69-21-47-48-0
0-46-8-35-19-54-13-27-0
0-40-32-9-39-12-0
0-4-45-29-52-34-67-0
0-6-1-22-28-62-2-0
0-51-16-49-23-56-41-43-63-0
0-7-53-59-66-65-38-26-0
Cost: 647
0-58-31-55-50-44-3-17-0
0-15-20-60-36-69-21-47-48-0
0-46-8-35-19-54-13-27-0
0-40-32-9-39-12-0
0-4-45-29-52-34-67-0
0-6-1-22-28-62-2-0
0-51-16-49-23-56-41-43-63-0
0-7-53-59-66-65-38-26-0
Cost: 647
0-58-31-55-50-44-3-17-0
0-15-20-60-36-69-21-47-48-0
0-46-8-35-19-54-13-27-0
0-40-32-9-39-12-0
0-4-45-29-52-34-67-0
0-6-1-22-28-62-2-0
0-51-16-49-23-56-41-43-63-0
0-7-53-59-66-65-38-26-0
Cost: 647
0-58-31-55-50-44-3-17-0
0-15-20-60-36-69-21-47-48-0
0-46-8-35-19-54-13-27-0
0-40-32-9-39-12-0
0-4-45-29-52-34-67-0
0-6-1-22-28-62-2-0
0-51-16-49-23-56-41-43-63-0
0-7-53-59-66-65-38-26-0
Cost: 647
0-27-13-54-19-35-8-46-0
0-17-3-44-50-55-31-58-0
0-7-53-59-66-65-38-26-0
0-51-16-49-23-56-41-43-63-0
0-15-20-60-36-69-21-47-48-0
0-2-62-28-22-1-6-0
0-12-39-9-32-40-0
0-67-34-52-29-45-4-0
Cost: 647
0-27-13-54-19-35-8-46-0
0-17-3-44-50-55-31-58-0
0-7-53-59-66-65-38-26-0
0-51-16-49-23-56-41-43-63-0
0-15-20-60-36-69-21-47-48-0
0-2-62-28-22-1-6-0
0-12-39-9-32-40-0
0-67-34-52-29-45-4-0
Cost: 647
0-27-13-54-19-35-8-46-0
0-17-3-44-50-55-31-58-0
0-7-53-59-66-65-38-26-0
0-51-16-49-23-56-41-43-63-0
0-15-20-60-36-69-21-47-48-0
0-2-62-28-22-1-6-0
0-12-39-9-32-40-0
0-67-34-52-29-45-4-0
Cost: 647
0-27-13-54-19-35-8-46-0
0-17-3-44-50-55-31-58-0
0-7-53-59-66-65-38-26-0
0-51-16-49-23-56-41-43-63-0
0-15-20-60-36-69-21-47-48-0
0-2-62-28-22-1-6-0
0-12-39-9-32-40-0
0-67-34-52-29-45-4-0
Cost: 647
0-27-13-54-19-35-8-46-0
0-17-3-44-50-55-31-58-0
0-7-53-59-66-65-38-26-0
0-51-16-49-23-56-41-43-63-0
0-15-20-60-36-69-21-47-48-0
0-2-62-28-22-1-6-0
0-12-39-9-32-40-0
0-67-34-52-29-45-4-0
Cost: 647
0-27-13-54-19-35-8-46-0
0-17-3-44-50-55-31-58-0
0-7-53-59-66-65-38-26-0
0-51-16-49-23-56-41-43-63-0
0-15-20-60-36-69-21-47-48-0
0-2-62-28-22-1-6-0
0-12-39-9-32-40-0
0-67-34-52-29-45-4-0
Cost: 647
0-27-13-54-19-35-8-46-0
0-17-3-44-50-55-31-58-0
0-7-53-59-66-65-38-26-0
0-51-16-49-23-56-41-43-63-0
0-15-20-60-36-69-21-47-48-0
0-2-62-28-22-1-6-0
0-12-39-9-32-40-0
0-67-34-52-29-45-4-0
Cost: 647
0-27-13-54-19-35-8-46-0
0-17-3-44-50-55-31-58-0
0-7-53-59-66-65-38-26-0
0-51-16-49-23-56-41-43-63-0
0-15-20-60-36-69-21-47-48-0
0-2-62-28-22-1-6-0
0-12-39-9-32-40-0
0-67-34-52-29-45-4-0
Cost: 647
0-27-13-54-19-35-8-46-0
0-17-3-44-50-55-31-58-0
0-7-53-59-66-65-38-26-0
0-51-16-49-23-56-41-43-63-0
0-15-20-60-36-69-21-47-48-0
0-2-62-28-22-1-6-0
0-12-39-9-32-40-0
0-67-34-52-29-45-4-0
Cost: 647
0-27-13-54-19-35-8-46-0
0-17-3-44-50-55-31-58-0
0-7-53-59-66-65-38-26-0
0-51-16-49-23-56-41-43-63-0
0-15-20-60-36-69-21-47-48-0
0-2-62-28-22-1-6-0
0-12-39-9-32-40-0
0-67-34-52-29-45-4-0
Cost: 647
0-27-13-54-19-35-8-46-0
0-17-3-44-50-55-31-58-0
0-7-53-59-66-65-38-26-0
0-51-16-49-23-56-41-43-63-0
0-15-20-60-36-69-21-47-48-0
0-2-62-28-22-1-6-0
0-12-39-9-32-40-0
0-67-34-52-29-45-4-0
Cost: 647
0-27-13-54-19-35-8-46-0
0-17-3-44-50-55-31-58-0
0-7-53-59-66-65-38-26-0
0-51-16-49-23-56-41-43-63-0
0-15-20-60-36-69-21-47-48-0
0-2-62-28-22-1-6-0
0-12-39-9-32-40-0
0-67-34-52-29-45-4-0
Cost: 647
0-7-53-59-66-65-38-26-0
0-67-34-52-29-45-4-0
0-15-20-60-36-69-21-47-48-0
0-12-39-9-32-40-0
0-27-13-54-19-35-8-46-0
0-2-62-28-22-1-6-0
0-58-31-55-50-44-3-17-0
0-51-16-49-23-56-41-43-63-0
Cost: 647
0-27-13-54-19-35-8-46-0
0-17-3-44-50-55-31-58-0
0-7-53-59-66-65-38-26-0
0-51-16-49-23-56-41-43-63-0
0-15-20-60-36-69-21-47-48-0
0-2-62-28-22-1-6-0
0-12-39-9-32-40-0
0-67-34-52-29-45-4-0
Cost: 647
0-27-13-54-19-35-8-46-0
0-17-3-44-50-55-31-58-0
0-7-53-59-66-65-38-26-0
0-51-16-49-23-56-41-43-63-0
0-15-20-60-36-69-21-47-48-0
0-2-62-28-22-1-6-0
0-12-39-9-32-40-0
0-67-34-52-29-45-4-0
Cost: 647
0-27-13-54-19-35-8-46-0
0-17-3-44-50-55-31-58-0
0-7-53-59-66-65-38-26-0
0-51-16-49-23-56-41-43-63-0
0-15-20-60-36-69-21-47-48-0
0-2-62-28-22-1-6-0
0-12-39-9-32-40-0
0-67-34-52-29-45-4-0
Cost: 647
0-63-43-41-56-23-49-16-51-0
0-67-34-52-29-45-4-0
0-48-21-47-36-69-60-20-15-0
0-6-1-22-28-62-2-0
0-26-38-65-66-59-53-7-0
0-17-3-44-50-55-31-58-0
0-46-8-35-19-54-13-27-0
0-12-39-9-32-40-0
Cost: 658
0-12-39-31-55-50-3-0
0-51-44-32-9-40-17-0
0-30-21-69-60-20-36-47-48-0
0-16-49-23-56-41-43-1-63-0
0-7-53-59-66-65-38-26-0
0-46-8-35-19-54-13-52-0
0-34-27-57-15-45-4-0
0-68-2-28-22-62-6-0
Cost: 654
0-17-50-55-31-39-12-0
0-7-35-53-59-66-65-38-0
0-8-19-54-13-57-15-45-0
0-63-1-43-41-56-23-49-16-0
0-30-21-69-60-20-36-47-48-0
0-51-3-44-32-9-40-0
0-4-27-52-34-46-26-0
0-6-62-22-28-2-68-0
Cost: 647
0-12-39-9-32-40-0
0-17-3-44-50-55-31-58-0
0-67-34-52-29-45-4-0
0-7-53-59-66-65-38-26-0
0-46-8-35-19-54-13-27-0
0-15-20-60-36-69-21-47-48-0
0-51-16-49-23-56-41-43-63-0
0-2-62-28-22-1-6-0
Cost: 647
0-7-53-59-66-65-38-26-0
0-6-1-22-28-62-2-0
0-15-20-60-69-36-47-21-48-0
0-40-32-9-39-12-0
0-63-43-41-56-23-49-16-51-0
0-46-8-35-19-54-13-27-0
0-4-45-29-52-34-67-0
0-58-31-55-50-44-3-17-0
